%%% static parameters %%%
timespan = 1;
Fact = [4];
Distr1 = [15];
Distr2 = [30];
Clients_N = [1000];
Demand_W = [15];
Lt0 = [4];
Lt1 = [4];
SS_ = [0.85];
DS_D = [8];
K = [200];
MA = [500];
%%% dynamic parameters %%%
lost_ratio_sales_ret_th = 0.4774312683331975;
lost_ratio_sales_ret_w = 35;
lost_ratio_sales_dis_th = 0.55787387118888;
lost_ratio_sales_dis_w = 42;
lost_ratio_sales_fac_th = 0.6813946811629871;
lost_ratio_sales_fac_w = 59;
stock_customer_MA_mean_relative_th = 0.2248579226562808;
stock_customer_MA_mean_relative_w = 38;
stock_distributor_MA_mean_relative_th = 0.052515650795109;
stock_distributor_MA_mean_relative_w = 19;
stock_retailer_MA_mean_relative_th = 0.42702545672672987;
stock_retailer_MA_mean_relative_w = 82;
stock_factory_MA_mean_relative_th = 0.09234913192986705;
stock_factory_MA_mean_relative_w = 99;
